(set-logic QF_LIA)
(set-info :ran/ran2.smt2)
(set-info :smt-lib-version 2.0)
(declare-fun x1 () Int)
(declare-fun x2 () Int)
(declare-fun x3 () Int)
(declare-fun x4 () Int)
(declare-fun x5 () Int)
(declare-fun x6 () Int)
(assert (<= (+ (* 10 x1) (* (- 6) x2) (* (- 3) x3) (* (- 8) x4) (* 0 x5) (* 6 x6) ) 6))
(assert (<= (+ (* 1 x1) (* 3 x2) (* 2 x3) (* (- 6) x4) (* 6 x5) (* (- 5) x6) ) (- 1)))
(assert (<= (+ (* (- 1) x1) (* (- 9) x2) (* (- 6) x3) (* (- 1) x4) (* (- 8) x5) (* 1 x6) ) (- 195)))
(assert (<= (+ (* 3 x1) (* 0 x2) (* 7 x3) (* 5 x4) (* (- 1) x5) (* (- 10) x6) ) 63))
(assert (<= (+ (* 7 x1) (* (- 5) x2) (* 2 x3) (* 7 x4) (* (- 1) x5) (* 7 x6) ) (- 120)))
(assert (<= (+ (* 7 x1) (* 1 x2) (* (- 5) x3) (* (- 5) x4) (* (- 7) x5) (* 6 x6) ) (- 117)))
(assert (<= (+ (* 7 x1) (* 9 x2) (* 2 x3) (* (- 6) x4) (* 8 x5) (* 6 x6) ) 39))
(assert (<= (+ (* 10 x1) (* (- 5) x2) (* (- 8) x3) (* 2 x4) (* 3 x5) (* 7 x6) ) (- 81)))
(assert (<= (+ (* (- 9) x1) (* 7 x2) (* (- 10) x3) (* 9 x4) (* (- 9) x5) (* 0 x6) ) 163))
(assert (<= (+ (* (- 1) x1) (* (- 5) x2) (* 1 x3) (* (- 7) x4) (* 6 x5) (* 5 x6) ) 47))
(assert (<= (+ (* 7 x1) (* (- 2) x2) (* 6 x3) (* 3 x4) (* (- 4) x5) (* (- 5) x6) ) 20))
(assert (<= (+ (* (- 6) x1) (* (- 9) x2) (* (- 1) x3) (* (- 7) x4) (* (- 6) x5) (* (- 1) x6) ) (- 119)))
(assert (<= (+ (* 1 x1) (* 0 x2) (* 0 x3) (* 0 x4) (* 0 x5) (* 0 x6) ) 199))
(assert (<= (+ (* (- 1) x1) (* 0 x2) (* 0 x3) (* 0 x4) (* 0 x5) (* 0 x6) ) 199))
(assert (<= (+ (* 0 x1) (* 1 x2) (* 0 x3) (* 0 x4) (* 0 x5) (* 0 x6) ) 199))
(assert (<= (+ (* 0 x1) (* (- 1) x2) (* 0 x3) (* 0 x4) (* 0 x5) (* 0 x6) ) 199))
(assert (<= (+ (* 0 x1) (* 0 x2) (* 1 x3) (* 0 x4) (* 0 x5) (* 0 x6) ) 199))
(assert (<= (+ (* 0 x1) (* 0 x2) (* (- 1) x3) (* 0 x4) (* 0 x5) (* 0 x6) ) 199))
(assert (<= (+ (* 0 x1) (* 0 x2) (* 0 x3) (* 1 x4) (* 0 x5) (* 0 x6) ) 199))
(assert (<= (+ (* 0 x1) (* 0 x2) (* 0 x3) (* (- 1) x4) (* 0 x5) (* 0 x6) ) 199))
(assert (<= (+ (* 0 x1) (* 0 x2) (* 0 x3) (* 0 x4) (* 1 x5) (* 0 x6) ) 199))
(assert (<= (+ (* 0 x1) (* 0 x2) (* 0 x3) (* 0 x4) (* (- 1) x5) (* 0 x6) ) 199))
(assert (<= (+ (* 0 x1) (* 0 x2) (* 0 x3) (* 0 x4) (* 0 x5) (* 1 x6) ) 199))
(assert (<= (+ (* 0 x1) (* 0 x2) (* 0 x3) (* 0 x4) (* 0 x5) (* (- 1) x6) ) 199))
